CPXPARAM_MIP_Cuts_Disjunctive#P15#0#2.270105#0.346500
CPXPARAM_MIP_Cuts_Disjunctive#P15#1#3.041239#0.464203
CPXPARAM_MIP_Cuts_Disjunctive#P15#2#3.512461#0.536129
CPXPARAM_MIP_Cuts_Disjunctive#P15#3#2.700547#0.412201
CPXPARAM_MIP_Cuts_Implied#P19#0#6.551527#1.000000
CPXPARAM_Preprocessing_Presolve#P57#1#5.883924#0.898100
